DIMENSION :22
NODE_COORD_SECTION
1 -72.80672120995632 -35.224657346238146
2 -11.75805614627241 57.8001601223215
3 8.578081699907997 -81.54418415354341
4 58.74758219124746 70.31093178785594
5 -86.18659241658591 37.75585376226229
6 77.19191235351329 -18.035379137281396
7 -9.25210152849661 10.07546514651439
8 16.142377961931786 66.55282445225907
9 73.4806198611067 23.589268085883774
10 -34.75696233684913 44.093112792754965
11 84.77443243547194 86.32515661141312
12 63.359328284543636 -65.73974976686216
13 17.84956324904408 -6.454378148259494
14 -42.713619964950446 1.4215265297275295
15 42.94924472362044 12.700522052176993
16 -11.630406651895143 -13.966850729561699
17 -33.70414080279704 89.00914759128969
18 56.238011959572304 41.56894560410055
19 -67.46750879838876 -60.23147030029548
20 -62.04754372293897 -48.18349683954188
21 -93.52846941076302 1.7739876276284434
22 -48.77798296527762 90.29006732325254
EOF
